(set-info :smt-lib-version 2.6)
(set-logic AUFBVFPDTNIRA)
(set-info :source |
Generated by: AdaCore
Generated on: 2020-03-06
Generator: SPARK
Application: Program verification for Ada
Target solver: CVC4
|)
(set-info :license "https://creativecommons.org/licenses/by/4.0/")
(set-info :category "industrial")
(set-info :status unknown)
;;; generated by SMT-LIB2 driver
;;; SMT-LIB2 driver: bit-vectors, common part
;;; SMT-LIB2: integer arithmetic
(declare-sort string 0)

(declare-datatypes ((tuple0 0))
(((Tuple0))))
(declare-sort us_private 0)

(declare-fun private__bool_eq (us_private us_private) Bool)

(declare-const us_null_ext__ us_private)

(declare-sort us_type_of_heap 0)

(declare-datatypes ((us_type_of_heap__ref 0))
(((us_type_of_heap__refqtmk (us_type_of_heap__content us_type_of_heap)))))
(declare-sort us_image 0)

(declare-datatypes ((int__ref 0))
(((int__refqtmk (int__content Int)))))
(declare-datatypes ((bool__ref 0))
(((bool__refqtmk (bool__content Bool)))))
(declare-datatypes ((us_fixed__ref 0))
(((us_fixed__refqtmk (us_fixed__content Int)))))
(declare-datatypes ((real__ref 0))
(((real__refqtmk (real__content Real)))))
(declare-datatypes ((us_private__ref 0))
(((us_private__refqtmk (us_private__content us_private)))))
(define-fun int__ref___projection ((a int__ref)) Int (int__content a))

(define-fun us_fixed__ref___projection ((a us_fixed__ref)) Int (us_fixed__content
                                                               a))

(define-fun bool__ref___projection ((a bool__ref)) Bool (bool__content a))

(define-fun real__ref___projection ((a real__ref)) Real (real__content a))

(define-fun us_private__ref___projection ((a us_private__ref)) us_private 
  (us_private__content a))

(define-fun in_range ((x Int)) Bool (or (= x 0) (= x 1)))

(declare-fun attr__ATTRIBUTE_IMAGE (Bool) us_image)

(declare-fun attr__ATTRIBUTE_VALUE__pre_check (us_image) Bool)

(declare-fun attr__ATTRIBUTE_VALUE (us_image) Bool)

(declare-sort unsigned_byte 0)

(declare-fun unsigned_byteqtint (unsigned_byte) Int)

;; unsigned_byte'axiom
  (assert
  (forall ((i unsigned_byte))
  (and (<= 0 (unsigned_byteqtint i)) (<= (unsigned_byteqtint i) 255))))

(define-fun in_range1 ((x Int)) Bool (and (<= 0 x) (<= x 255)))

(declare-fun attr__ATTRIBUTE_IMAGE1 (Int) us_image)

(declare-fun attr__ATTRIBUTE_VALUE__pre_check1 (us_image) Bool)

(declare-fun attr__ATTRIBUTE_VALUE1 (us_image) Int)

(declare-fun user_eq (unsigned_byte unsigned_byte) Bool)

(declare-const dummy unsigned_byte)

(declare-datatypes ((unsigned_byte__ref 0))
(((unsigned_byte__refqtmk (unsigned_byte__content unsigned_byte)))))
(define-fun unsigned_byte__ref_unsigned_byte__content__projection ((a unsigned_byte__ref)) unsigned_byte 
  (unsigned_byte__content a))

(define-fun to_rep ((x unsigned_byte)) Int (unsigned_byteqtint x))

(declare-fun of_rep (Int) unsigned_byte)

;; inversion_axiom
  (assert
  (forall ((x unsigned_byte))
  (! (= (of_rep (to_rep x)) x) :pattern ((to_rep x)) )))

;; range_axiom
  (assert
  (forall ((x unsigned_byte)) (! (in_range1
  (to_rep x)) :pattern ((to_rep x)) )))

;; coerce_axiom
  (assert
  (forall ((x Int))
  (! (=> (in_range1 x) (= (to_rep (of_rep x)) x)) :pattern ((to_rep
                                                            (of_rep x))) )))

(declare-datatypes ((map__ref 0))
(((map__refqtmk (map__content (Array Int unsigned_byte))))))
(declare-fun slide ((Array Int unsigned_byte) Int
  Int) (Array Int unsigned_byte))

;; slide_eq
  (assert
  (forall ((a (Array Int unsigned_byte)))
  (forall ((first Int))
  (! (= (slide a first first) a) :pattern ((slide a first first)) ))))

;; slide_def
  (assert
  (forall ((a (Array Int unsigned_byte)))
  (forall ((old_first Int))
  (forall ((new_first Int))
  (forall ((i Int))
  (! (= (select (slide a old_first new_first) i) (select a (- i (- new_first old_first)))) :pattern ((select 
  (slide a old_first new_first) i)) ))))))

(define-fun bool_eq ((a (Array Int unsigned_byte)) (a__first Int)
  (a__last Int) (b (Array Int unsigned_byte)) (b__first Int)
  (b__last Int)) Bool (ite (and
                           (ite (<= a__first a__last)
                           (and (<= b__first b__last)
                           (= (- a__last a__first) (- b__last b__first)))
                           (< b__last b__first))
                           (forall ((temp___idx_162 Int))
                           (=>
                           (and (<= a__first temp___idx_162)
                           (<= temp___idx_162 a__last))
                           (= (to_rep (select a temp___idx_162)) (to_rep
                                                                 (select b (+ (- b__first a__first) temp___idx_162)))))))
                      true false))

;; bool_eq_rev
  (assert
  (forall ((a (Array Int unsigned_byte)) (b (Array Int unsigned_byte)))
  (forall ((a__first Int) (a__last Int) (b__first Int) (b__last Int))
  (=> (= (bool_eq b b__first b__last a a__first a__last) true)
  (and
  (ite (<= a__first a__last)
  (and (<= b__first b__last) (= (- a__last a__first) (- b__last b__first)))
  (< b__last b__first))
  (forall ((temp___idx_162 Int))
  (=> (and (<= a__first temp___idx_162) (<= temp___idx_162 a__last))
  (= (to_rep (select a temp___idx_162)) (to_rep
                                        (select b (+ (- b__first a__first) temp___idx_162)))))))))))

(declare-const dummy1 (Array Int unsigned_byte))

(declare-const value__size Int)

(declare-const object__size Int)

(declare-const component__size Int)

(declare-const alignment Int)

;; value__size_axiom
  (assert (<= 0 value__size))

;; object__size_axiom
  (assert (<= 0 object__size))

;; component__size_axiom
  (assert (<= 0 component__size))

;; alignment_axiom
  (assert (<= 0 alignment))

(declare-fun user_eq1 ((Array Int unsigned_byte)
  (Array Int unsigned_byte)) Bool)

(declare-datatypes ((us_split_fields 0))
(((us_split_fieldsqtmk
  (rec__arrays__optional_int_array__a (Array Int unsigned_byte))(rec__arrays__optional_int_array__exists Bool)))))
(define-fun us_split_fields_rec__arrays__optional_int_array__a__projection ((a us_split_fields)) (Array Int unsigned_byte) 
  (rec__arrays__optional_int_array__a a))

(define-fun us_split_fields_rec__arrays__optional_int_array__exists__projection ((a us_split_fields)) Bool 
  (rec__arrays__optional_int_array__exists a))

(declare-datatypes ((us_split_fields__ref 0))
(((us_split_fields__refqtmk (us_split_fields__content us_split_fields)))))
(define-fun us_split_fields__ref___split_fields__content__2__projection ((a us_split_fields__ref)) us_split_fields 
  (us_split_fields__content a))

(declare-datatypes ((us_rep 0))
(((us_repqtmk (us_split_fields1 us_split_fields)))))
(define-fun us_rep___split_fields__2__projection ((a us_rep)) us_split_fields 
  (us_split_fields1 a))

(define-fun bool_eq1 ((a us_rep)
  (b us_rep)) Bool (ite (and
                        (= (bool_eq
                           (rec__arrays__optional_int_array__a
                           (us_split_fields1 a)) 1 1000
                           (rec__arrays__optional_int_array__a
                           (us_split_fields1 b)) 1 1000) true)
                        (= (ite (rec__arrays__optional_int_array__exists
                                (us_split_fields1 a)) 1 0) (ite (rec__arrays__optional_int_array__exists
                                                                (us_split_fields1
                                                                b)) 1 0)))
                   true false))

(declare-const value__size1 Int)

(declare-const object__size1 Int)

(declare-const alignment1 Int)

;; value__size_axiom
  (assert (<= 0 value__size1))

;; object__size_axiom
  (assert (<= 0 object__size1))

;; alignment_axiom
  (assert (<= 0 alignment1))

(declare-const arrays__optional_int_array__a__first__bit Int)

(declare-const arrays__optional_int_array__a__last__bit Int)

(declare-const arrays__optional_int_array__a__position Int)

;; arrays__optional_int_array__a__first__bit_axiom
  (assert (<= 0 arrays__optional_int_array__a__first__bit))

;; arrays__optional_int_array__a__last__bit_axiom
  (assert
  (< arrays__optional_int_array__a__first__bit arrays__optional_int_array__a__last__bit))

;; arrays__optional_int_array__a__position_axiom
  (assert (<= 0 arrays__optional_int_array__a__position))

(declare-const arrays__optional_int_array__exists__first__bit Int)

(declare-const arrays__optional_int_array__exists__last__bit Int)

(declare-const arrays__optional_int_array__exists__position Int)

;; arrays__optional_int_array__exists__first__bit_axiom
  (assert (<= 0 arrays__optional_int_array__exists__first__bit))

;; arrays__optional_int_array__exists__last__bit_axiom
  (assert
  (< arrays__optional_int_array__exists__first__bit arrays__optional_int_array__exists__last__bit))

;; arrays__optional_int_array__exists__position_axiom
  (assert (<= 0 arrays__optional_int_array__exists__position))

(declare-fun user_eq2 (us_rep us_rep) Bool)

(declare-const dummy2 us_rep)

(declare-datatypes ((optional_int_array__ref 0))
(((optional_int_array__refqtmk (optional_int_array__content us_rep)))))
(define-fun optional_int_array__ref_optional_int_array__content__projection ((a optional_int_array__ref)) us_rep 
  (optional_int_array__content a))

(declare-const attr__ATTRIBUTE_ADDRESS Int)

(define-fun dynamic_invariant ((temp___expr_174 Int)
  (temp___is_init_170 Bool) (temp___skip_constant_171 Bool)
  (temp___do_toplevel_172 Bool)
  (temp___do_typ_inv_173 Bool)) Bool (=>
                                     (or (= temp___is_init_170 true)
                                     (<= 0 255)) (in_range1 temp___expr_174)))

(declare-const rliteral unsigned_byte)

;; rliteral_axiom
  (assert (= (unsigned_byteqtint rliteral) 5))

(assert
;; defqtvc
 ;; File "arrays.adb", line 139, characters 0-0
  (not
  (forall ((r__split_fields us_split_fields)
  (r__split_fields1 us_split_fields))
  (=>
  (= r__split_fields1 (us_split_fieldsqtmk
                      (store (rec__arrays__optional_int_array__a
                             r__split_fields) 3 rliteral)
                      (rec__arrays__optional_int_array__exists
                      r__split_fields)))
  (=> (= (rec__arrays__optional_int_array__exists r__split_fields1) true)
  (= (to_rep
     (select (rec__arrays__optional_int_array__a r__split_fields1) 3)) 5))))))
(check-sat)
(exit)
